molecule mol {
  0 1
  O
  H 1 0.9
  H 1 0.9 2 104.5
  symmetry c1
}

plugin_load("./test.so")

set basis sto-3g

basisname = psi4.get_global_option("BASIS")
wfn = psi4.new_wavefunction(mol, basisname)
psi4.plugin('./test.so', wfn)


